NAME          ClpDefau  FREE
ROWS
 N  OBJROW
 L  S1R14_09
 L  S1R14_10
 L  S1R14_11
 L  S1R14_12
 L  S1R21_11
 L  S1R21_12
 L  S2R08_09
 L  S2R08_10
 L  S2R08_11
 L  S2R08_12
 L  S3R05_11
 L  S3R05_12
 L  PI_CONST1
 G  PI_CONST2
 L  PI_CONST3
 G  PI_CONST4
 L  PI_CONST5
 G  PI_CONST6
 L  PI_CONST7
 G  PI_CONST8
 L  PI_CONST9
 G  PI_CONST10
 L  PI_CONST11
 G  PI_CONST12
 L  PI_CONST13
 G  PI_CONST14
 L  PI_CONST15
 G  PI_CONST16
 L  PI_CONST17
 G  PI_CONST18
 L  PI_CONST19
 G  PI_CONST20
 L  PI_CONST21
 G  PI_CONST22
 L  PI_CONST23
 G  PI_CONST24
 G  _LB_IM10
 L  _UB_IM10
 G  _LB_IM11
 L  _UB_IM11
 G  _LB_IM12
 L  _UB_IM12
 G  _LB_IM9
 L  _UB_IM9
 G  _LB_Q1
 L  _UB_Q1
 G  _LB_Q2A
 L  _UB_Q2A
 G  _LB_Q2B
 L  _UB_Q2B
 G  _LB_Q2C
 L  _UB_Q2C
 G  _LB_Q2D
 L  _UB_Q2D
 G  _LB_Q4A
 L  _UB_Q4A
 G  _LB_Q4B
 L  _UB_Q4B
COLUMNS
    IM10 OBJROW  -0.1092    
    IM10 PI_CONST19 1.          
    IM10 PI_CONST20 1.          
    IM10 _LB_IM10 1.          
    IM10 _UB_IM10 1.          
    IM11 OBJROW -0.01092    
    IM11 PI_CONST21 1.          
    IM11 PI_CONST22 1.          
    IM11 _LB_IM11 1.          
    IM11 _UB_IM11 1.          
    IM12 OBJROW  -0.1092    
    IM12 PI_CONST23 1.          
    IM12 PI_CONST24 1.          
    IM12 _LB_IM12 1.          
    IM12 _UB_IM12 1.          
    IM9 OBJROW  -0.1104    
    IM9 PI_CONST17 1.          
    IM9 PI_CONST18 1.          
    IM9 _LB_IM9 1.          
    IM9 _UB_IM9 1.          
    Q1 OBJROW 1.095       
    Q1 S1R14_09 0.574       
    Q1 S1R14_10 0.574       
    Q1 S1R14_11 0.576       
    Q1 S1R14_12 0.574       
    Q1 S1R21_11 0.758       
    Q1 S1R21_12 0.76        
    Q1 S2R08_09 0.016       
    Q1 S2R08_10 0.016       
    Q1 S2R08_11 0.014       
    Q1 S2R08_12 0.014       
    Q1 S3R05_11 0.78        
    Q1 S3R05_12 0.78        
    Q1 PI_CONST1 1.          
    Q1 PI_CONST2 1.          
    Q1 PI_CONST3 1.          
    Q1 PI_CONST4 1.          
    Q1 PI_CONST5 1.          
    Q1 PI_CONST6 1.          
    Q1 PI_CONST7 1.          
    Q1 PI_CONST8 1.          
    Q1 PI_CONST9 1.          
    Q1 PI_CONST10 1.          
    Q1 PI_CONST11 1.          
    Q1 PI_CONST12 1.          
    Q1 PI_CONST13 1.          
    Q1 PI_CONST14 1.          
    Q1 PI_CONST15 1.          
    Q1 PI_CONST16 1.          
    Q1 PI_CONST17 1.          
    Q1 PI_CONST18 1.          
    Q1 PI_CONST19 1.          
    Q1 PI_CONST20 1.          
    Q1 PI_CONST21 1.          
    Q1 PI_CONST22 1.          
    Q1 PI_CONST23 1.          
    Q1 PI_CONST24 1.          
    Q1 _LB_Q1 1.          
    Q1 _UB_Q1 1.          
    Q2A OBJROW 0.276       
    Q2A S1R14_09 0.252       
    Q2A S1R14_10 0.012       
    Q2A S1R14_11 0.002       
    Q2A S1R21_11 0.002       
    Q2A S2R08_09 0.018       
    Q2A S2R08_10 0.002       
    Q2A PI_CONST1 1.          
    Q2A PI_CONST2 1.          
    Q2A PI_CONST9 1.          
    Q2A PI_CONST10 1.          
    Q2A PI_CONST17 1.          
    Q2A PI_CONST18 1.          
    Q2A _LB_Q2A 1.          
    Q2A _UB_Q2A 1.          
    Q2B OBJROW 0.273       
    Q2B S1R14_10 0.252       
    Q2B S1R14_11 0.012       
    Q2B S1R21_11 0.026       
    Q2B S1R21_12 0.002       
    Q2B S2R08_10 0.018       
    Q2B S3R05_11 0.04        
    Q2B PI_CONST3 1.          
    Q2B PI_CONST4 1.          
    Q2B PI_CONST11 1.          
    Q2B PI_CONST12 1.          
    Q2B PI_CONST19 1.          
    Q2B PI_CONST20 1.          
    Q2B _LB_Q2B 1.          
    Q2B _UB_Q2B 1.          
    Q2C OBJROW 0.273       
    Q2C S1R14_11 0.254       
    Q2C S1R14_12 0.012       
    Q2C S1R21_11 0.616       
    Q2C S1R21_12 0.026       
    Q2C S2R08_11 0.016       
    Q2C S3R05_11 0.72        
    Q2C S3R05_12 0.04        
    Q2C PI_CONST5 1.          
    Q2C PI_CONST6 1.          
    Q2C PI_CONST13 1.          
    Q2C PI_CONST14 1.          
    Q2C PI_CONST21 1.          
    Q2C PI_CONST22 1.          
    Q2C _LB_Q2C 1.          
    Q2C _UB_Q2C 1.          
    Q2D OBJROW 0.273       
    Q2D S1R14_09 0.012       
    Q2D S1R14_12 0.254       
    Q2D S1R21_12 0.616       
    Q2D S2R08_09 0.002       
    Q2D S2R08_12 0.016       
    Q2D S3R05_12 0.72        
    Q2D PI_CONST7 1.          
    Q2D PI_CONST8 1.          
    Q2D PI_CONST15 1.          
    Q2D PI_CONST16 1.          
    Q2D PI_CONST23 1.          
    Q2D PI_CONST24 1.          
    Q2D _LB_Q2D 1.          
    Q2D _UB_Q2D 1.          
    Q4A OBJROW 0.273       
    Q4A S1R14_10 0.002       
    Q4A S1R21_11 0.002       
    Q4A S2R08_10 0.294       
    Q4A S2R08_11 0.004       
    Q4A S3R05_11 0.02        
    Q4A PI_CONST3 1.          
    Q4A PI_CONST4 1.          
    Q4A PI_CONST11 1.          
    Q4A PI_CONST12 1.          
    Q4A PI_CONST19 1.          
    Q4A PI_CONST20 1.          
    Q4A _LB_Q4A 1.          
    Q4A _UB_Q4A 1.          
    Q4B OBJROW 0.273       
    Q4B S1R14_12 0.002       
    Q4B S1R21_12 0.024       
    Q4B S2R08_09 0.006       
    Q4B S2R08_12 0.294       
    Q4B S3R05_12 0.9         
    Q4B PI_CONST7 1.          
    Q4B PI_CONST8 1.          
    Q4B PI_CONST15 1.          
    Q4B PI_CONST16 1.          
    Q4B PI_CONST23 1.          
    Q4B PI_CONST24 1.          
    Q4B _LB_Q4B 1.          
    Q4B _UB_Q4B 1.          
RHS
    RHS S1R14_09 13576.77669 
    RHS S1R14_10 13773.86091 
    RHS S1R14_11 14038.85513 
    RHS S1R14_12 13899.904026
    RHS S1R21_11 18625.58997 
    RHS S1R21_12 18791.180901
    RHS S2R08_09 13917.030165
    RHS S2R08_10 13897.730923
    RHS S2R08_11 13776.005827
    RHS S2R08_12 13764.574012
    RHS S3R05_11 30000.      
    RHS S3R05_12 28814.343309
    RHS PI_CONST1 80000.      
    RHS PI_CONST2 30000.      
    RHS PI_CONST3 80000.      
    RHS PI_CONST4 30000.      
    RHS PI_CONST5 80000.      
    RHS PI_CONST6 30000.      
    RHS PI_CONST7 80000.      
    RHS PI_CONST8 30000.      
    RHS PI_CONST9 80000.      
    RHS PI_CONST10 25000.      
    RHS PI_CONST11 80000.      
    RHS PI_CONST12 25000.      
    RHS PI_CONST13 80000.      
    RHS PI_CONST14 25000.      
    RHS PI_CONST15 80000.      
    RHS PI_CONST16 25000.      
    RHS PI_CONST17 80000.      
    RHS PI_CONST18 45000.      
    RHS PI_CONST19 80000.      
    RHS PI_CONST20 45000.      
    RHS PI_CONST21 80000.      
    RHS PI_CONST22 45000.      
    RHS PI_CONST23 80000.      
    RHS PI_CONST24 45000.      
    RHS _UB_IM10 1000000.    
    RHS _UB_IM11 1000000.    
    RHS _UB_IM12 1000000.    
    RHS _UB_IM9 1000000.    
    RHS _UB_Q1 50000.      
    RHS _UB_Q2A 50000.      
    RHS _UB_Q2B 50000.      
    RHS _UB_Q2C 50000.      
    RHS _UB_Q2D 50000.      
    RHS _UB_Q4A 50000.      
    RHS _UB_Q4B 50000.      
BOUNDS
 UP BOUND IM10 1000000.    
 UP BOUND IM11 1000000.    
 UP BOUND IM12 1000000.    
 UP BOUND IM9 1000000.    
 UP BOUND Q1 50000.      
 UP BOUND Q2A 50000.      
 UP BOUND Q2B 50000.      
 UP BOUND Q2C 50000.      
 UP BOUND Q2D 50000.      
 UP BOUND Q4A 50000.      
 UP BOUND Q4B 50000.      
ENDATA
